CPXPARAM_MIP_Strategy_NodeSelect#P39#1#CPXPARAM_MIP_Strategy_VariableSelect#P46#0#4.133962#0.508657
CPXPARAM_MIP_Strategy_NodeSelect#P39#1#CPXPARAM_MIP_Strategy_VariableSelect#P46#1#2.907135#0.357704
CPXPARAM_MIP_Strategy_NodeSelect#P39#1#CPXPARAM_MIP_Strategy_VariableSelect#P46#2#4.735838#0.582714
CPXPARAM_MIP_Strategy_NodeSelect#P39#1#CPXPARAM_MIP_Strategy_VariableSelect#P46#3#1.040509#0.128028
CPXPARAM_MIP_Strategy_NodeSelect#P39#2#CPXPARAM_MIP_Strategy_VariableSelect#P46#0#8.127207#1.000000
CPXPARAM_MIP_Strategy_NodeSelect#P39#3#CPXPARAM_MIP_Strategy_VariableSelect#P46#0#1.040480#0.128024
